c read Graph
c width = 152
c time = 103 ms
c width = 15
c time = 181 ms
c width = 14
c time = 287 ms
c width = 13
c time = 372 ms
c width = 12
c time = 1773 ms
c width = 12
c time = 4872 ms
s td 148 13 165
b 1 1 2 16
b 2 2 3 16 17
b 3 13 14 29 30
b 4 3 16 17 31
b 5 13 29 30 45
b 6 121 136 137 152
b 7 135 149 150 164
b 8 121 137 152 153
b 9 135 149 163 164
b 10 3 4 5 19
b 11 3 5 18 19 32 46
b 12 5 18 19 32 34 46 48
b 13 5 19 32 34 46 48 62
b 14 5 19 34 46 48 62 76
b 15 5 19 21 34 35 48 62 76
b 16 5 21 34 35 48 50 62 64 76
b 17 34 48 49 50 64
b 18 5 21 35 48 50 62 64 76 78
b 19 48 62 63 64 78
b 20 5 21 35 50 62 64 76 78 92
b 21 62 76 77 78 92
b 22 5 21 35 50 64 76 78 92 94 110 126 140 156
b 23 5 21 35 50 64 78 92 94 110 126 140 156
b 24 5 21 35 50 64 78 80 94 110 126 140 156
b 25 5 21 35 50 64 66 80 94 110 126 140 156
b 26 5 21 35 50 51 66 80 94 110 126 140 156
b 27 5 21 35 37 51 66 80 94 110 126 140 156
b 28 21 35 36 37 51
b 29 5 21 37 51 66 80 94 96 110 126 140 156
b 30 80 94 95 96 110
b 31 5 21 37 51 66 80 82 96 110 126 140 156
b 32 5 21 37 51 66 67 82 96 110 126 140 156
b 33 5 21 37 51 67 82 96 110 112 126 140 156
b 34 96 110 111 112 126
b 35 5 21 37 51 67 82 96 98 112 126 140 156
b 36 82 96 97 98 112
b 37 5 21 37 51 53 67 82 98 112 126 140 156
b 38 37 51 52 53 67
b 39 5 9 21 23 37 53 67 82 98 112 126 140 156
b 40 9 23 25 37 39 53 67 82 98 112 126 140 156
b 41 9 25 39 53 67 69 82 84 98 112 126 140 156
b 42 9 25 39 53 55 69 84 98 112 126 140 156
b 43 39 53 54 55 69
b 44 9 25 39 55 69 84 98 112 126 140 142 156
b 45 9 25 39 55 69 84 98 112 126 128 142 156
b 46 9 25 39 55 69 84 98 112 128 142 156 158
b 47 9 25 39 55 69 84 98 112 128 142 144 158
b 48 128 142 143 144 158
b 49 9 25 39 55 69 84 98 112 128 144 158 160
b 50 9 25 39 55 69 84 98 112 114 128 144 160
b 51 9 25 39 55 69 84 98 100 114 128 144 160
b 52 9 25 39 55 69 84 100 114 128 130 144 160
b 53 9 25 39 55 69 84 100 114 116 130 144 160
b 54 9 25 39 55 69 70 84 100 116 130 144 160
b 55 9 25 39 55 70 84 86 100 116 130 144 160
b 56 9 25 39 55 70 86 100 102 116 130 144 160
b 57 86 100 101 102 116
b 58 70 84 85 86 100
b 59 100 114 115 116 130
b 60 114 128 129 130 144
b 61 84 98 99 100 114
b 62 98 112 113 114 128
b 63 144 158 159 160
b 64 142 156 157 158
b 65 112 126 127 128 142
b 66 126 140 141 142 156
b 67 53 67 69 82 83 84 98
b 68 53 67 68 69 83
b 69 9 23 24 25 39
b 70 23 37 38 39 53
b 71 5 7 9 21 23 37
b 72 5 6 7 21
b 73 7 21 22 23 37
b 74 7 8 9 23
b 75 66 80 81 82 96
b 76 50 64 65 66 80
b 77 64 78 79 80 94
b 78 76 78 92 94 110 124 126 140 156
b 79 76 78 92 94 108 110 124 140 156
b 80 78 92 93 94 108
b 81 94 108 109 110 124
b 82 76 92 108 124 140 154 156
b 83 140 154 155 156
b 84 76 92 106 108 124 140 154
b 85 76 91 92 106
b 86 92 106 108 124 138 140 154
b 87 124 138 139 140 154
b 88 92 106 108 122 124 138 154
b 89 92 106 107 108 122
b 90 106 122 138 153 154
b 91 106 121 122 138 153
b 92 121 122 137 138 153
b 93 108 122 123 124 138
b 94 110 124 125 126 140
b 95 5 19 20 21 35
b 96 46 61 62 76
b 97 32 46 47 48 62
b 98 18 32 33 34 48
b 99 3 18 31 32 46
b 100 3 17 18 31 32
b 101 58 72 73 74 88
b 102 9 25 41 56 58 60 72 74 88
b 103 9 25 39 41 55 70 86 102 116 130 144 160
b 104 9 25 41 55 56 70 86 102 116 130 144 160
b 105 9 25 41 56 60 72 74 88 102 116 130 144 160
b 106 9 25 41 56 70 72 86 102 116 130 144 160
b 107 9 25 41 56 72 86 88 102 116 130 144 160
b 108 25 39 40 41 55
b 109 9 25 41 42 56 58 60 72 74
b 110 9 13 25 28 41 42 58 60 74
b 111 13 28 42 44 58 60 74
b 112 28 42 43 44 58
b 113 13 28 44 45 60
b 114 13 28 29 44 45
b 115 44 58 59 60 74
b 116 9 13 25 27 28 41 42
b 117 9 11 13 25 27 41
b 118 9 10 11 25
b 119 11 12 13 27
b 120 11 25 26 27 41
b 121 42 56 57 58 72
b 122 60 74 88 102 104 116 120 130 144 160
b 123 60 74 88 90 104 120
b 124 90 104 105 120
b 125 60 74 75 90
b 126 74 88 89 90 104
b 127 88 102 104 116 120 130 144 146 160
b 128 88 102 104 116 120 130 132 146 160
b 129 88 102 104 116 118 120 132 146 160
b 130 102 116 117 118 132
b 131 88 102 103 104 118
b 132 104 118 120 132 146 160 162
b 133 146 160 161 162
b 134 104 118 120 132 146 148 162
b 135 132 146 147 148 162
b 136 104 118 120 132 134 148 162
b 137 120 134 148 162 163
b 138 120 134 135 148 163
b 139 134 135 148 149 163
b 140 118 132 133 134 148
b 141 104 118 119 120 134
b 142 116 130 131 132 146
b 143 130 144 145 146 160
b 144 72 86 87 88 102
b 145 56 70 71 72 86
b 146 150 164 165
b 147 136 151 152
b 148 14 15 30
1 2
2 4
3 148
3 5
4 100
5 114
6 147
6 8
7 146
7 9
8 92
9 139
10 11
11 99
11 12
12 98
12 13
13 97
13 14
14 96
14 15
15 95
15 16
16 18
16 17
18 20
18 19
20 22
20 21
22 78
22 23
23 24
24 77
24 25
25 76
25 26
26 27
27 29
27 28
29 31
29 30
31 75
31 32
32 33
33 35
33 34
35 37
35 36
37 39
37 38
39 71
39 40
40 69
40 70
40 41
41 67
41 42
42 44
42 43
44 66
44 45
45 65
45 46
46 64
46 47
47 49
47 48
49 63
49 50
50 62
50 51
51 61
51 52
52 60
52 53
53 54
53 59
54 55
55 58
55 56
56 103
56 57
67 68
71 72
71 73
71 74
78 94
78 79
79 80
79 81
79 82
82 84
82 83
84 85
84 86
86 87
86 88
88 90
88 89
88 93
90 91
91 92
99 100
101 102
102 109
102 105
103 108
103 104
104 106
105 122
105 107
106 145
106 107
107 144
109 121
109 110
110 116
110 111
111 113
111 115
111 112
113 114
116 117
117 118
117 119
117 120
122 123
122 127
123 125
123 124
123 126
127 143
127 128
128 142
128 129
129 131
129 130
129 132
132 133
132 134
134 135
134 136
136 137
136 141
136 140
137 138
138 139
